439 436 438 437 435 434 433 432 430 431 429 428 427 426 382 425 424 423 422 421 420 419 417 418 411 412 356 402 401 360 359 358 357 355 354 353 413 414 416 415 352 351 350 349 348 347 362 361 363 364 346 345 344 343 341 340 330 331 332 333 339 338 337 336 335 334 283 284 285 286 287 280 281 282 279 278 277 276 288 289 290 275 274 273 292 291 293 270 268 269 272 271 267 294 295 296 297 321 320 319 317 318 305 306 304 303 307 505 308 309 310 311 312 313 316 314 315 322 323 324 325 326 327 328 329 366 342 365 367 368 369 370 398 397 399 400 403 404 405 406 407 408 409 410 384 383 385 386 387 388 389 390 392 391 393 394 395 396 371 372 373 374 375 376 377 378 379 380 381 445 444 443 442 446 447 448 449 440 441 450 451 501 500 499 453 452 461 459 460 462 463 464 465 496 497 495 494 524 525 493 492 491 490 529 528 527 526 523 522 521 520 518 519 498 502 503 504 517 516 515 514 513 512 511 510 509 506 507 508 302 301 300 258 259 262 299 298 266 265 264 263 261 260 257 256 255 253 254 252 251 250 249 248 241 242 243 244 245 247 246 238 239 240 237 236 235 234 232 233 530 531 489 532 533 488 534 535 487 486 485 484 483 481 482 475 476 477 478 479 480 536 537 539 538 540 176 177 178 187 188 186 229 230 231 228 227 189 225 226 190 191 192 193 219 218 220 221 222 224 223 217 216 215 214 213 212 211 210 209 205 206 207 208 203 204 202 201 200 199 198 197 196 195 194 184 185 183 182 179 181 180 169 171 170 172 175 174 173 108 109 111 110 107 542 541 543 544 545 546 547 103 104 105 106 116 115 114 112 113 161 160 162 168 163 167 166 164 165 154 155 159 156 153 157 158 145 144 143 142 146 147 148 152 149 150 151 141 140 139 138 137 136 135 134 133 132 131 130 129 128 127 126 125 124 69 68 70 71 123 122 117 121 120 118 119 73 72 65 67 66 75 74 76 64 63 61 60 59 81 80 79 62 78 77 88 89 90 87 86 85 84 83 82 57 58 56 55 53 54 52 51 50 49 48 47 46 45 44 43 42 39 40 41 557 556 555 91 92 93 94 95 96 97 98 102 101 100 99 554 553 552 551 550 559 558 560 561 562 549 548 564 563 565 566 567 474 473 472 471 470 469 468 467 466 571 570 569 568 17 18 19 20 21 24 25 26 27 28 29 30 32 33 34 35 38 37 36 31 22 23 12 13 14 15 16 11 10 9 8 7 6 572 573 5 0 4 3 2 1 458 457 456 455 454